(set-info :smt-lib-version 2.6)
(set-logic QF_S)
(set-info :source |
Generated by: Murphy Berzish, Mitja Kulczynski, Federico Mora, Florin Manea, Joel Day, Dirk Nowotka, Vijay Ganesh, Zhengyang Lu
Generated on: 2020-10-01
Description: Translated from a collection of real-world regex queries, AutomataArk, collected by Loris D’Antoni and Fang Wang: https://github.com/lorisdanto/automatark
Application: Evaluate solvers on real-world regex queries
Target solver: Z3str3RE, CVC4, OSTRICH, Z3seq, Z3str3, Z3-Trau
Publications: Berzish, M., Kulczynski, M., Mora, F., Manea, F., Day, J. D., Nowotka, D., & Ganesh, V. (2021, July). An SMT solver for regular expressions and linear arithmetic over string length. In CAV 2021.
|)
(set-info :license "https://creativecommons.org/licenses/by/4.0/")
(set-info :category "industrial")
(set-info :status unsat)

(declare-const X String)
(assert (str.in_re X (re.++ (str.to_re "\u{a}") (re.opt (re.union (str.to_re "1") (str.to_re "2") (str.to_re "3") (str.to_re "4") (str.to_re "5") (str.to_re "6") (str.to_re "7") (str.to_re "8") (str.to_re "9"))) (re.range "0" "9"))))
(assert (str.in_re X (re.++ (str.to_re "/filename=") (re.* (re.comp (str.to_re "\u{a}"))) (str.to_re ".xlsx/i\u{a}"))))
(assert (str.in_re X (re.++ (str.to_re "FTP") (re.* re.allchar) (str.to_re "www.wordiq.com\u{1b}\u{a}"))))
(assert (str.in_re X (re.++ (str.to_re "0x") (re.+ (re.union (re.range "0" "9") (re.range "a" "f") (re.range "A" "F"))) (str.to_re "\u{a}"))))
(assert (not (str.in_re X (re.++ (str.to_re "e2give.com") (re.* re.allchar) (str.to_re "Redirector\u{22}") (re.* re.allchar) (str.to_re "Host:\u{a}")))))
(check-sat)

(exit)
